
N = 10;

Nm = 5;

Nf = 5;

C = 1;

G = 5;

A = 4;

T = 250;

init = 0.001000;

individu = 
[[[[2,2],
[3,4],
[2,3],
[4,2],
[1,1]]],
[[[2,4],
[3,3],
[1,1],
[4,1],
[4,3]]],
[[[3,1],
[2,2],
[2,2],
[1,3],
[4,4]]],
[[[1,2],
[2,3],
[1,3],
[2,4],
[1,2]]],
[[[4,2],
[1,3],
[4,1],
[3,3],
[2,3]]],
[[[2,4],
[3,3],
[1,4],
[1,1],
[2,4]]],
[[[4,3],
[1,1],
[1,2],
[4,2],
[1,4]]],
[[[4,1],
[1,4],
[3,4],
[1,1],
[3,2]]],
[[[3,4],
[1,1],
[2,1],
[1,2],
[1,2]]],
[[[2,4],
[4,2],
[1,1],
[3,4],
[2,4]]]];
